# Objective value = 76
WA1n 0
WA1p 0
WA2n 1
WA2p 0
WB1n 0
WB1p 0
WB2n 1
WB2p 0
WC1n 1
WC1p 0
WD1n 1
WD1p 0
WD2n 1
WD2p 0
WE1n 1
WE1p 0
WE2n 1
WE2p 0
WF1n 0
WF1p 4
WG1n 0
WG1p 5
WG2n 0
WG2p 1
WH1n 0
WH1p 9
WH2n 0
WH2p 1
WI1n 0
WI1p 9
WI2n 0
WI2p 1
WJ1n 24
WJ1p 0
WJ2n 1
WJ2p 0
WT1n 0
WT1p 4
WT2n 0
WT2p 1
5 7
a 0
b 0
c 0
d 0
e 0
f 0
g 0
h 0
i 0
j 1
k 1
l 1
m 1
n 1
o 1
p 1
q 0
r 0
s 1
t 1
